
Gurobi 13.0.2 (win64) logging started Thu Jul 23 16:16:57 2026

Set parameter LogFile to value "E:\codes\ExactEBRP\results\gf_gurobi_performance_recovery_round29\runs\stage2__moderate_seed4302__c3_replica__300s\external\native_logs\R.0.0.0.0.1.1.1.1.0_terminal_mip.gurobi.log"
Gurobi Optimizer version 13.0.2 build v13.0.2rc1 (win64 - Windows 10.0 (19045.2))

CPU model: 12th Gen Intel(R) Core(TM) i7-12700KF, instruction set [SSE2|AVX|AVX2]
Thread count: 12 physical cores, 20 logical processors, using up to 1 threads

Non-default parameters:
TimeLimit  2.2410908310000002e+02
MIPGap  0
MIPGapAbs  0
LogToConsole  0
Threads  1

Optimize a model with 11919 rows, 3378 columns and 67378 nonzeros (Min)
Model fingerprint: 0xcd088870
Model has 21 linear objective coefficients
Variable types: 1686 continuous, 1692 integer (1492 binary)
Coefficient statistics:
  Matrix range     [3e-03, 2e+04]
  Objective range  [7e-03, 1e+00]
  Bounds range     [3e-03, 1e+02]
  RHS range        [3e-03, 5e+04]

Presolve removed 7354 rows and 1235 columns
Presolve time: 0.29s
Presolved: 4565 rows, 2143 columns, 37187 nonzeros
Variable types: 1043 continuous, 1100 integer (1014 binary)

Root relaxation: objective 3.454358e-03, 1455 iterations, 0.05 seconds (0.13 work units)

    Nodes    |    Current Node    |     Objective Bounds      |     Work
 Expl Unexpl |  Obj  Depth IntInf | Incumbent    BestBd   Gap | It/Node Time

     0     0    0.00345    0  179          -    0.00345      -     -    0s
     0     0    0.00345    0  213          -    0.00345      -     -    0s
     0     0    0.00345    0  217          -    0.00345      -     -    0s
     0     0 infeasible    0               - infeasible      -     -    1s

Cutting planes:
  Learned: 7
  Cover: 5
  Implied bound: 95
  Clique: 12
  MIR: 34
  StrongCG: 3
  Flow cover: 45
  Zero half: 26
  Network: 7
  RLT: 13
  Relax-and-lift: 52
  BQP: 2

Explored 1 nodes (4590 simplex iterations) in 1.07 seconds (1.83 work units)
Thread count was 1 (of 20 available processors)

Solution count 0

Model is infeasible
Best objective -, best bound -, gap -

User-callback calls 1143, time in user-callback 0.00 sec
